
        $ From http://www.csplib.org/Problems/prob009/data/helmut.pdf
        $ Problem number 125
        $ Sequence length : 25
        language ESSENCE' 1.0
        letting sizemaster be 396
        letting sizes be sequence(3,8,9,11,14,16,17,18,31,32,41,45,48,56,60,66,73,75,81,82,98,99,117,180,216)
        